
Gurobi 12.0.0 (win64, Python) logging started Wed Dec 31 08:18:35 2025

Set parameter Username
Set parameter LicenseID to value 2757188
Set parameter LogFile to value "gurobi.log"
Academic license - for non-commercial use only - expires 2026-12-21
